Version identifier: 22.1.0.0 | 2022-03-09 | 1a383f8ce
CPXPARAM_Read_DataCheck                          1
CPXPARAM_TimeLimit                               600
Tried aggregator 4 times.
MIP Presolve eliminated 215050 rows and 15776 columns.
MIP Presolve modified 1950 coefficients.
Aggregator did 203439 substitutions.
Reduced MIP has 16386 rows, 206035 columns, and 428878 nonzeros.
Reduced MIP has 205985 binaries, 50 generals, 0 SOSs, and 0 indicators.
Presolve time = 3.24 sec. (3424.83 ticks)
Tried aggregator 1 time.
Detecting symmetries...
Reduced MIP has 16386 rows, 206035 columns, and 428878 nonzeros.
Reduced MIP has 205985 binaries, 50 generals, 0 SOSs, and 0 indicators.
Presolve time = 0.76 sec. (367.52 ticks)
Probing fixed 75 vars, tightened 0 bounds.
Probing time = 1.27 sec. (107.02 ticks)
Clique table members: 415801.
MIP emphasis: balance optimality and feasibility.
MIP search method: dynamic search.
Parallel mode: deterministic, using up to 8 threads.
Root relaxation solution time = 4.26 sec. (1378.17 ticks)

        Nodes                                         Cuts/
   Node  Left     Objective  IInf  Best Integer    Best Bound    ItCnt     Gap

      0     0       50.3957 12277                     50.3957       25         
      0     0       81.0000  1282                   Fract: 31    33773         
      0     0       81.0000  1308                    Cuts: 91    60627         

Zero-half cuts applied:  63
Lift and project cuts applied:  3
Gomory fractional cuts applied:  32

Root node processing (before b&c):
  Real time             =  600.05 sec. (252571.51 ticks)
Parallel b&c, 8 threads:
  Real time             =    0.00 sec. (0.00 ticks)
  Sync time (average)   =    0.00 sec.
  Wait time (average)   =    0.00 sec.
                          ------------
Total (root+branch&cut) =  600.05 sec. (252571.51 ticks)
